30
1 0 53
2 0 48
2 1 47
3 0 81
3 1 71
3 2 102
4 0 107
4 1 57
4 2 49
4 3 81
5 0 120
5 1 65
5 2 116
5 3 4
5 4 51
6 0 106
6 1 63
6 2 17
6 3 31
6 4 82
6 5 27
7 0 53
7 1 18
7 2 103
7 3 29
7 4 37
7 5 87
7 6 81
8 0 22
8 1 62
8 2 28
8 3 28
8 4 21
8 5 5
8 6 116
8 7 5
9 0 109
9 1 4
9 2 105
9 3 12
9 4 77
9 5 110
9 6 47
9 7 19
9 8 95
10 0 3
10 1 57
10 2 13
10 3 100
10 4 37
10 5 38
10 6 77
10 7 49
10 8 97
10 9 29
11 0 74
11 1 3
11 2 7
11 3 90
11 4 99
11 5 87
11 6 86
11 7 89
11 8 8
11 9 52
11 10 104
12 0 42
12 1 84
12 2 18
12 3 114
12 4 110
12 5 16
12 6 4
12 7 24
12 8 11
12 9 105
12 10 111
12 11 8
13 0 4
13 1 18
13 2 13
13 3 3
13 4 22
13 5 14
13 6 33
13 7 76
13 8 18
13 9 38
13 10 95
13 11 116
13 12 78
14 0 98
14 1 1
14 2 61
14 3 60
14 4 17
14 5 19
14 6 43
14 7 17
14 8 5
14 9 103
14 10 31
14 11 34
14 12 80
14 13 63
15 0 82
15 1 50
15 2 74
15 3 20
15 4 29
15 5 63
15 6 1
15 7 24
15 8 107
15 9 13
15 10 77
15 11 54
15 12 101
15 13 39
15 14 72
16 0 47
16 1 19
16 2 9
16 3 19
16 4 30
16 5 39
16 6 4
16 7 87
16 8 80
16 9 57
16 10 13
16 11 23
16 12 101
16 13 100
16 14 114
16 15 103
17 0 62
17 1 84
17 2 27
17 3 111
17 4 27
17 5 7
17 6 116
17 7 25
17 8 58
17 9 55
17 10 26
17 11 43
17 12 6
17 13 1
17 14 75
17 15 12
17 16 43
18 0 50
18 1 108
18 2 114
18 3 90
18 4 59
18 5 19
18 6 69
18 7 3
18 8 68
18 9 71
18 10 98
18 11 72
18 12 83
18 13 3
18 14 96
18 15 32
18 16 86
18 17 31
19 0 114
19 1 11
19 2 44
19 3 39
19 4 82
19 5 37
19 6 10
19 7 108
19 8 117
19 9 7
19 10 32
19 11 88
19 12 42
19 13 36
19 14 12
19 15 74
19 16 99
19 17 33
19 18 15
20 0 44
20 1 97
20 2 55
20 3 28
20 4 107
20 5 12
20 6 90
20 7 100
20 8 15
20 9 53
20 10 36
20 11 21
20 12 74
20 13 35
20 14 54
20 15 33
20 16 113
20 17 86
20 18 48
20 19 104
21 0 30
21 1 74
21 2 95
21 3 28
21 4 67
21 5 84
21 6 31
21 7 118
21 8 90
21 9 101
21 10 63
21 11 3
21 12 27
21 13 101
21 14 95
21 15 37
21 16 84
21 17 77
21 18 45
21 19 26
21 20 96
22 0 62
22 1 100
22 2 56
22 3 12
22 4 112
22 5 10
22 6 5
22 7 115
22 8 100
22 9 31
22 10 67
22 11 49
22 12 96
22 13 29
22 14 110
22 15 80
22 16 27
22 17 24
22 18 31
22 19 33
22 20 46
22 21 59
23 0 74
23 1 93
23 2 34
23 3 97
23 4 82
23 5 60
23 6 38
23 7 58
23 8 72
23 9 115
23 10 50
23 11 17
23 12 92
23 13 81
23 14 16
23 15 35
23 16 117
23 17 84
23 18 85
23 19 68
23 20 55
23 21 3
23 22 33
24 0 63
24 1 71
24 2 76
24 3 73
24 4 41
24 5 44
24 6 117
24 7 10
24 8 104
24 9 101
24 10 116
24 11 100
24 12 83
24 13 32
24 14 115
24 15 28
24 16 48
24 17 62
24 18 28
24 19 12
24 20 120
24 21 1
24 22 101
24 23 42
25 0 34
25 1 42
25 2 9
25 3 7
25 4 73
25 5 35
25 6 78
25 7 118
25 8 31
25 9 89
25 10 61
25 11 10
25 12 74
25 13 112
25 14 111
25 15 83
25 16 57
25 17 7
25 18 6
25 19 27
25 20 50
25 21 105
25 22 42
25 23 76
25 24 18
26 0 14
26 1 48
26 2 3
26 3 11
26 4 89
26 5 7
26 6 18
26 7 71
26 8 40
26 9 2
26 10 69
26 11 76
26 12 22
26 13 16
26 14 110
26 15 120
26 16 112
26 17 21
26 18 36
26 19 6
26 20 80
26 21 97
26 22 4
26 23 79
26 24 112
26 25 117
27 0 9
27 1 17
27 2 16
27 3 114
27 4 90
27 5 109
27 6 15
27 7 99
27 8 5
27 9 46
27 10 9
27 11 16
27 12 10
27 13 56
27 14 101
27 15 102
27 16 97
27 17 41
27 18 60
27 19 3
27 20 6
27 21 75
27 22 90
27 23 93
27 24 33
27 25 18
27 26 34
28 0 49
28 1 107
28 2 84
28 3 45
28 4 95
28 5 100
28 6 78
28 7 46
28 8 53
28 9 94
28 10 43
28 11 85
28 12 96
28 13 35
28 14 67
28 15 66
28 16 76
28 17 73
28 18 37
28 19 61
28 20 86
28 21 10
28 22 23
28 23 95
28 24 1
28 25 32
28 26 89
28 27 83
29 0 18
29 1 30
29 2 43
29 3 46
29 4 114
29 5 107
29 6 23
29 7 54
29 8 10
29 9 82
29 10 88
29 11 73
29 12 41
29 13 90
29 14 16
29 15 49
29 16 1
29 17 12
29 18 48
29 19 6
29 20 38
29 21 3
29 22 4
29 23 63
29 24 118
29 25 48
29 26 108
29 27 82
29 28 32
